\ LP format - for model browsing. Use MPS format to capture full model detail.
Maximize
 
Subject To
 R0: x[3] >= 1
 R1: x[3] >= 1
 R2: x[1] + x[2] <= 1
 R3: x[3] >= 1
 R4: x[3] >= 1
 R5: x[3] >= 1
 R6: x[3] >= 1
 R7: x[3] >= 1
 R8: x[3] >= 1
 R9: x[3] >= 1
 R10: x[1] + x[2] <= 1
 qc0: x[1] + [ - x[1] * x[3] ] = 0
 qc1: - x[3] + [ - 3 x[2] ^2 ] <= -2
 qc2: x[1] + [ - x[1] * x[3] ] = 0
 qc3: - x[3] + [ - 3 x[2] ^2 ] <= -2
 qc4: - x[3] + [ x[1] * x[3] + x[2] * x[3] ] = 0
 qc5: x[1] + [ - x[1] * x[3] ] = 0
 qc6: - x[3] + [ - 3 x[2] ^2 ] <= -2
 qc7: x[1] + [ - x[1] * x[3] ] = 0
 qc8: - x[3] + [ - 3 x[2] ^2 ] <= -2
 qc9: x[1] + [ - x[1] * x[3] ] = 0
 qc10: - x[3] + [ - 3 x[2] ^2 ] <= -2
 qc11: x[1] + [ - x[1] * x[3] ] = 0
 qc12: - x[3] + [ - 3 x[2] ^2 ] <= -2
 qc13: x[1] + [ - x[1] * x[3] ] = 0
 qc14: - x[3] + [ - 3 x[2] ^2 ] <= -2
 qc15: x[1] + [ - x[1] * x[3] ] = 0
 qc16: - x[3] + [ - 3 x[2] ^2 ] <= -2
 qc17: x[1] + [ - x[1] * x[3] ] = 0
 qc18: - x[3] + [ - 3 x[2] ^2 ] <= -2
 qc19: - x[3] + [ x[1] * x[3] + x[2] * x[3] ] = 0
Bounds
End
